NAME : single
TYPE : ATSP
DIMENSION : 7
EDGE_WEIGHT_TYPE : EXPLICIT
EDGE_WEIGHT_FORMAT : FULL_MATRIX
EDGE_WEIGHT_SECTION
0 513 41 698 601 581 653 
0 0 221 348 369 424 448 
0 221 0 376 357 388 428 
0 348 376 0 196 335 273 
0 369 357 196 0 139 284 
0 424 388 335 139 0 299 
0 448 428 273 284 299 0 
EOF